sat
(
  (define-fun StorageProv7 () Int
    4000)
  (define-fun StorageProv12 () Int
    4000)
  (define-fun StorageProv4 () Int
    4000)
  (define-fun PriceProv4 () Int
    379)
  (define-fun StorageProv9 () Int
    2000)
  (define-fun MemProv3 () Int
    7500)
  (define-fun StorageProv11 () Int
    4000)
  (define-fun C1_VM10 () Int
    1)
  (define-fun StorageProv2 () Int
    4000)
  (define-fun C4_VM11 () Int
    0)
  (define-fun VM5Type () Int
    186)
  (define-fun MemProv2 () Int
    15000)
  (define-fun C5_VM3 () Int
    0)
  (define-fun C3_VM10 () Int
    0)
  (define-fun PriceProv12 () Int
    379)
  (define-fun PriceProv6 () Int
    210)
  (define-fun C3_VM4 () Int
    0)
  (define-fun C3_VM9 () Int
    0)
  (define-fun VM8Type () Int
    182)
  (define-fun C2_VM11 () Int
    1)
  (define-fun VM7Type () Int
    186)
  (define-fun C1_VM4 () Int
    1)
  (define-fun C1_VM3 () Int
    0)
  (define-fun C4_VM8 () Int
    1)
  (define-fun C2_VM8 () Int
    0)
  (define-fun C4_VM6 () Int
    1)
  (define-fun MemProv4 () Int
    15000)
  (define-fun MemProv8 () Int
    7500)
  (define-fun MemProv12 () Int
    15000)
  (define-fun VM3Type () Int
    182)
  (define-fun C3_VM5 () Int
    0)
  (define-fun ProcProv3 () Int
    4)
  (define-fun C3_VM6 () Int
    0)
  (define-fun ProcProv12 () Int
    4)
  (define-fun VM11Type () Int
    186)
  (define-fun MemProv6 () Int
    7500)
  (define-fun PriceProv10 () Int
    460)
  (define-fun C2_VM6 () Int
    0)
  (define-fun ProcProv5 () Int
    4)
  (define-fun ProcProv6 () Int
    4)
  (define-fun StorageProv5 () Int
    4000)
  (define-fun C2_VM3 () Int
    0)
  (define-fun C5_VM1 () Int
    0)
  (define-fun PriceProv8 () Int
    210)
  (define-fun VM2Type () Int
    186)
  (define-fun C3_VM2 () Int
    0)
  (define-fun C2_VM10 () Int
    0)
  (define-fun ProcProv2 () Int
    4)
  (define-fun C5_VM12 () Int
    0)
  (define-fun StorageProv1 () Int
    4000)
  (define-fun C2_VM2 () Int
    1)
  (define-fun C3_VM12 () Int
    0)
  (define-fun C5_VM2 () Int
    0)
  (define-fun ProcProv4 () Int
    4)
  (define-fun C4_VM5 () Int
    0)
  (define-fun C4_VM2 () Int
    0)
  (define-fun C4_VM4 () Int
    0)
  (define-fun VM6Type () Int
    182)
  (define-fun ProcProv9 () Int
    8)
  (define-fun MemProv9 () Int
    15000)
  (define-fun C1_VM6 () Int
    0)
  (define-fun VM9Type () Int
    136)
  (define-fun C1_VM5 () Int
    1)
  (define-fun ProcProv7 () Int
    4)
  (define-fun StorageProv8 () Int
    2000)
  (define-fun C3_VM8 () Int
    0)
  (define-fun C2_VM1 () Int
    1)
  (define-fun C3_VM1 () Int
    0)
  (define-fun C5_VM4 () Int
    0)
  (define-fun MemProv10 () Int
    15000)
  (define-fun C2_VM4 () Int
    1)
  (define-fun C2_VM9 () Int
    0)
  (define-fun PriceProv2 () Int
    379)
  (define-fun StorageProv6 () Int
    2000)
  (define-fun C5_VM6 () Int
    0)
  (define-fun C4_VM1 () Int
    0)
  (define-fun C1_VM8 () Int
    0)
  (define-fun C4_VM10 () Int
    0)
  (define-fun C5_VM8 () Int
    0)
  (define-fun C2_VM5 () Int
    1)
  (define-fun C3_VM7 () Int
    0)
  (define-fun PriceProv5 () Int
    379)
  (define-fun C5_VM7 () Int
    0)
  (define-fun StorageProv10 () Int
    2000)
  (define-fun C4_VM3 () Int
    1)
  (define-fun MemProv1 () Int
    15000)
  (define-fun PriceProv7 () Int
    379)
  (define-fun C4_VM12 () Int
    0)
  (define-fun PriceProv9 () Int
    460)
  (define-fun ProcProv1 () Int
    4)
  (define-fun StorageProv3 () Int
    2000)
  (define-fun C4_VM7 () Int
    0)
  (define-fun C1_VM2 () Int
    1)
  (define-fun C2_VM12 () Int
    1)
  (define-fun C5_VM10 () Int
    1)
  (define-fun PriceProv3 () Int
    210)
  (define-fun VM12Type () Int
    186)
  (define-fun MemProv11 () Int
    15000)
  (define-fun ProcProv11 () Int
    4)
  (define-fun C1_VM7 () Int
    1)
  (define-fun ProcProv8 () Int
    4)
  (define-fun C5_VM11 () Int
    0)
  (define-fun C1_VM12 () Int
    1)
  (define-fun ProcProv10 () Int
    8)
  (define-fun MemProv5 () Int
    15000)
  (define-fun C1_VM1 () Int
    1)
  (define-fun PriceProv1 () Int
    379)
  (define-fun C5_VM5 () Int
    0)
  (define-fun PriceProv11 () Int
    379)
  (define-fun C2_VM7 () Int
    1)
  (define-fun C3_VM3 () Int
    0)
  (define-fun C1_VM11 () Int
    1)
  (define-fun VM10Type () Int
    136)
  (define-fun VM1Type () Int
    186)
  (define-fun MemProv7 () Int
    15000)
  (define-fun C4_VM9 () Int
    0)
  (define-fun C3_VM11 () Int
    0)
  (define-fun VM4Type () Int
    186)
  (define-fun C1_VM9 () Int
    1)
  (define-fun C5_VM9 () Int
    1)
)
(objectives
 ( 3339)
 ((+ 0
   PriceProv1
   PriceProv2
   PriceProv3
   PriceProv4
   PriceProv5
   PriceProv6
   PriceProv7
   PriceProv8
   PriceProv9
   PriceProv10
   PriceProv11
   PriceProv12) 4203)
)
(:added-eqs                   22147298
 :arith-eq-adapter            53288110
 :arith-bound-propagations-lp 3463934
 :arith-conflicts             1007
 :arith-diseq                 68842005
 :arith-fixed-eqs             281419
 :arith-lower                 80521120
 :arith-make-feasible         9557714
 :arith-max-columns           423
 :arith-max-rows              38
 :arith-upper                 62449193
 :binary-propagations         179885495
 :bv-bit2core                 1713185
 :bv-dynamic-diseqs           69009679
 :bv-dynamic-eqs              18
 :bv->core-eq                 10512
 :conflicts                   150346
 :decisions                   33405021
 :del-clause                  107691245
 :final-checks                6748
 :max-memory                  555.02
 :maxsat-cores                3264
 :memory                      537.98
 :minimized-lits              2636891
 :mk-bool-var                 50548271
 :mk-clause                   107695349
 :mk-clause-binary            26853
 :num-allocs                  134626734090778.00
 :num-checks                  11923
 :pb-conflicts                10691
 :pb-predicates               7
 :pb-propagations             338022
 :pb-resolves                 397
 :propagations                351755714
 :restarts                    474
 :rlimit-count                2476913440
 :time                        1491.83
 :total-time                  359.49)
